sat
(:max-memory            28.10
 :memory                18.46
 :num-allocs            2090237
 :rlimit-count          15495
 :sat-backjumps         4
 :sat-conflicts         4
 :sat-decisions         53
 :sat-minimized-lits    1
 :sat-mk-clause-2ary    1573
 :sat-mk-clause-nary    11634
 :sat-mk-var            2667
 :sat-propagations-2ary 798
 :sat-propagations-nary 2337
 :time                  0.03
 :total-time            0.05)
